c   #vars: 79   #clauses: 348   #literals: 966
c 
p cnf 79 348
-1 -2 0
-3 -4 0
-5 -6 0
27 28 74 75 0
27 28 76 77 0
-7 -8 0
-10 -11 0
-12 -13 0
17 18 72 73 0
15 16 33 34 0
33 34 62 63 0
-17 19 20 36 0
-15 -16 0
-17 -18 0
-19 -20 0
-21 -22 0
-23 -24 0
-25 -26 0
-27 -28 0
-29 -30 0
-31 -32 0
-33 -34 0
44 -53 72 73 0
-19 45 53 54 0
-37 -38 0
-39 -40 0
-42 -43 0
46 -64 70 71 0
-12 41 78 79 0
-47 -48 0
-49 -50 0
12 13 31 32 0
15 16 37 38 0
-51 -52 0
14 -60 62 63 0
-53 -54 0
21 22 39 40 0
7 8 78 79 0
9 27 28 -32 0
9 -28 78 79 0
-56 -57 0
-58 -59 0
-60 -61 0
-62 -63 0
-64 -65 0
-66 -67 0
-68 -69 0
-70 -71 0
-72 -73 0
-74 -75 0
5 6 76 77 0
-76 -77 0
17 18 53 54 0
-78 -79 0
44 62 63 -72 0
-2 -35 0
14 -29 62 63 0
1 2 -25 55 0
17 18 42 43 0
9 51 52 -79 0
-2 -55 0
7 8 64 65 0
-1 -60 0
-2 -61 0
5 6 46 -64 0
-1 -76 0
-2 -77 0
-3 17 18 36 0
-3 -27 0
-4 -28 0
1 2 60 61 0
-17 45 53 54 0
-4 -36 0
35 -56 62 63 0
-3 -42 0
-4 -43 0
17 18 -19 36 0
-3 -78 0
-4 -79 0
10 11 74 75 0
-5 -29 0
-6 -30 0
35 56 57 -62 0
-5 -33 0
-6 -34 0
-1 10 11 55 0
-17 41 78 79 0
-6 -46 0
10 11 51 52 0
-5 -53 0
-6 -54 0
9 -28 31 32 0
-5 -70 0
-6 -71 0
5 6 70 71 0
-5 -76 0
-6 -77 0
37 38 78 79 0
-7 -27 0
-8 -28 0
10 11 -25 55 0
-7 -37 0
-8 -38 0
51 52 68 69 0
-7 -64 0
-8 -65 0
17 18 -19 45 0
-7 -66 0
-8 -67 0
39 40 66 67 0
-7 -78 0
-8 -79 0
-9 -27 0
7 8 37 38 0
-9 -31 0
23 24 29 30 0
-1 25 26 55 0
51 52 58 59 0
-9 -51 0
17 18 41 -78 0
3 4 27 28 0
-9 -78 0
-12 17 18 41 0
23 24 78 79 0
-10 -33 0
-11 -34 0
9 -52 78 79 0
-10 -49 0
-11 -50 0
21 22 72 73 0
-10 -51 0
-11 -52 0
9 -32 51 52 0
-11 -55 0
15 16 74 75 0
-10 -60 0
-11 -61 0
1 2 76 77 0
-10 -74 0
-11 -75 0
12 13 41 -78 0
-12 -31 0
-13 -32 0
27 28 56 57 0
-13 -41 0
49 50 72 73 0
-12 -66 0
-13 -67 0
-12 -70 0
-13 -71 0
39 40 60 61 0
44 53 54 -62 0
44 -62 72 73 0
31 32 68 69 0
1 2 35 -62 0
1 2 35 -56 0
25 26 47 48 0
-3 19 20 36 0
-14 -30 0
31 32 56 57 0
3 4 -19 36 0
-14 -61 0
39 40 53 54 0
3 4 -17 36 0
-14 -63 0
-15 -33 0
-16 -34 0
42 43 68 69 0
-15 -37 0
-16 -38 0
-15 -39 0
-16 -40 0
19 20 56 57 0
14 29 30 -62 0
12 13 70 71 0
-15 -68 0
-16 -69 0
49 50 76 77 0
-15 -74 0
-16 -75 0
25 26 37 38 0
19 20 45 -53 0
-18 -36 0
-1 35 56 57 0
-18 -41 0
47 48 58 59 0
-17 -42 0
-18 -43 0
-5 46 70 71 0
-18 -45 0
25 26 60 61 0
-17 -53 0
-18 -54 0
-17 -70 0
-18 -71 0
31 32 62 63 0
-17 -72 0
-18 -73 0
-17 19 20 45 0
-20 -36 0
14 60 61 -62 0
-19 -42 0
-20 -43 0
19 20 64 65 0
46 64 65 -70 0
-20 -45 0
47 48 66 67 0
-19 -56 0
-20 -57 0
9 27 28 -52 0
-19 -64 0
-20 -65 0
21 22 76 77 0
-19 -74 0
-20 -75 0
17 18 70 71 0
-21 -27 0
-22 -28 0
-21 -39 0
-22 -40 0
49 50 60 61 0
-21 -72 0
-22 -73 0
-21 -76 0
-22 -77 0
-23 -29 0
-24 -30 0
19 20 42 43 0
-23 -53 0
-24 -54 0
15 16 68 69 0
-23 -72 0
-24 -73 0
10 11 33 34 0
-23 -78 0
-24 -79 0
25 26 29 30 0
-25 -29 0
-26 -30 0
42 43 58 59 0
-25 -37 0
-26 -38 0
5 6 29 30 0
-25 -39 0
-26 -40 0
-25 -47 0
-26 -48 0
9 -28 51 52 0
-26 -55 0
29 30 66 67 0
-25 -60 0
-26 -61 0
7 8 66 67 0
-27 -56 0
-28 -57 0
27 28 72 73 0
-27 -72 0
-28 -73 0
-27 -74 0
-28 -75 0
5 6 33 34 0
-27 -76 0
-28 -77 0
15 16 39 40 0
-29 -64 0
-30 -65 0
47 48 74 75 0
-29 -66 0
-30 -67 0
12 13 66 67 0
-31 -56 0
-32 -57 0
9 31 32 -52 0
-31 -58 0
-32 -59 0
-31 -62 0
-32 -63 0
12 13 -17 41 0
-31 -68 0
-32 -69 0
-33 -62 0
-34 -63 0
44 -53 62 63 0
-35 -57 0
44 53 54 -72 0
-35 -63 0
3 4 42 43 0
-37 -56 0
-38 -57 0
-1 35 62 63 0
-37 -78 0
-38 -79 0
10 11 60 61 0
-39 -53 0
-40 -54 0
-39 -60 0
-40 -61 0
9 27 28 -79 0
-39 -66 0
-40 -67 0
29 30 64 65 0
1 2 -10 55 0
7 8 27 28 0
-41 -79 0
23 24 53 54 0
-42 -58 0
-43 -59 0
31 32 58 59 0
-42 -68 0
-43 -69 0
-44 -54 0
-44 -63 0
21 22 27 28 0
-44 -73 0
10 11 49 50 0
-5 46 64 65 0
-45 -54 0
3 4 78 79 0
-46 -65 0
17 18 45 -53 0
-46 -71 0
19 20 74 75 0
5 6 53 54 0
14 29 30 -60 0
9 -32 78 79 0
-47 -58 0
-48 -59 0
37 38 56 57 0
-47 -66 0
-48 -67 0
-47 -74 0
-48 -75 0
-49 -60 0
-50 -61 0
14 -29 60 61 0
-49 -72 0
-50 -73 0
9 31 32 -79 0
-49 -76 0
-50 -77 0
5 6 46 -70 0
-10 25 26 55 0
23 24 72 73 0
-51 -58 0
-52 -59 0
25 26 39 40 0
-51 -68 0
-52 -69 0
